NAME : att48.tsp
COMMENT : Optimal tour for att48.tsp
TYPE : TOUR
DIMENSION : 48
Total Length: 33958.68234475372
TOUR_SECTION
1
16
22
3
34
41
29
2
26
4
35
45
10
24
42
5
48
39
32
21
13
25
14
23
11
47
20
33
12
40
15
46
36
30
43
17
27
19
37
6
28
7
18
44
31
38
9
8
-1
EOF
